(set-logic QF_LRA)
(declare-fun fluent_treated_i0_t0@2 () Bool)
(declare-fun fluent_treated_i0_t1@2 () Bool)
(declare-fun fluent_treated_i0_t2@2 () Bool)
(declare-fun fluent_treated_i0_t3@2 () Bool)
(declare-fun fluent_started_i0_t0@0 () Bool)
(declare-fun fluent_started_i0_t1@0 () Bool)
(declare-fun fluent_started_i0_t2@0 () Bool)
(declare-fun fluent_started_i0_t3@0 () Bool)
(declare-fun fluent_started_i0_t4@0 () Bool)
(declare-fun fluent_treated_i0_t4@2 () Bool)
(declare-fun fluent_ready_i0_t0@0 () Bool)
(declare-fun fluent_ready_i0_t1@0 () Bool)
(declare-fun fluent_ready_i0_t2@0 () Bool)
(declare-fun fluent_ready_i0_t3@0 () Bool)
(declare-fun fluent_ready_i0_t4@0 () Bool)
(declare-fun fluent_busy_@2 () Bool)
(declare-fun fluent_busy_@0 () Bool)
(declare-fun fluent_counter_t0@2 () Real)
(declare-fun fluent_treated_i0_t0@0 () Bool)
(declare-fun fluent_treated_i0_t1@0 () Bool)
(declare-fun fluent_treated_i0_t2@0 () Bool)
(declare-fun fluent_treated_i0_t3@0 () Bool)
(declare-fun fluent_treated_i0_t4@0 () Bool)
(declare-fun fluent_counter_t2@2 () Real)
(declare-fun fluent_counter_t3@2 () Real)
(declare-fun fluent_ready_i0_t0@2 () Bool)
(declare-fun fluent_ready_i0_t1@2 () Bool)
(declare-fun fluent_counter_t4@2 () Real)
(declare-fun fluent_ready_i0_t2@2 () Bool)
(declare-fun fluent_ready_i0_t3@2 () Bool)
(declare-fun fluent_ready_i0_t4@2 () Bool)
(declare-fun fluent_started_i0_t0@2 () Bool)
(declare-fun fluent_started_i0_t1@2 () Bool)
(declare-fun fluent_counter_t0@0 () Real)
(declare-fun act_make_treatment@1 () Bool)
(declare-fun fluent_started_i0_t2@2 () Bool)
(declare-fun fluent_started_i0_t3@2 () Bool)
(declare-fun fluent_counter_t1@0 () Real)
(declare-fun dur_make_treatment@2 () Real)
(declare-fun fluent_started_i0_t4@2 () Bool)
(declare-fun fluent_counter_t2@0 () Real)
(declare-fun act_make_treatment@2 () Bool)
(declare-fun fluent_counter_t3@0 () Real)
(declare-fun fluent_counter_t4@0 () Real)
(declare-fun dur_make_treatment@1 () Real)
(declare-fun t@1 () Real)
(declare-fun t@2 () Real)
(declare-fun parameter_make_treatment_t@1 () Real)
(declare-fun parameter_make_treatment_i@1 () Real)
(declare-fun parameter_make_treatment_next@1 () Real)
(declare-fun fluent_counter_t1@2 () Real)
(declare-fun fluent_ready_i0_t0@1 () Bool)
(declare-fun fluent_ready_i0_t1@1 () Bool)
(declare-fun parameter_make_treatment_t@2 () Real)
(declare-fun fluent_ready_i0_t2@1 () Bool)
(declare-fun fluent_ready_i0_t3@1 () Bool)
(declare-fun fluent_ready_i0_t4@1 () Bool)
(declare-fun parameter_make_treatment_i@2 () Real)
(declare-fun fluent_started_i0_t0@1 () Bool)
(declare-fun fluent_started_i0_t1@1 () Bool)
(declare-fun fluent_started_i0_t2@1 () Bool)
(declare-fun fluent_started_i0_t3@1 () Bool)
(declare-fun fluent_started_i0_t4@1 () Bool)
(declare-fun fluent_treated_i0_t0@1 () Bool)
(declare-fun fluent_treated_i0_t1@1 () Bool)
(declare-fun fluent_treated_i0_t2@1 () Bool)
(declare-fun fluent_treated_i0_t3@1 () Bool)
(declare-fun fluent_treated_i0_t4@1 () Bool)
(declare-fun parameter_make_treatment_next@2 () Real)
(declare-fun fluent_busy_@1 () Bool)
(declare-fun fluent_counter_t0@1 () Real)
(declare-fun fluent_counter_t1@1 () Real)
(declare-fun fluent_counter_t2@1 () Real)
(declare-fun fluent_counter_t3@1 () Real)
(declare-fun fluent_counter_t4@1 () Real)
(assert (let ((.def_0 (<= fluent_counter_t3@2 31.0))) (let ((.def_1 (<= 0.0 fluent_counter_t3@2))) (let ((.def_2 (<= fluent_counter_t2@2 31.0))) (let ((.def_3 (<= 0.0 fluent_counter_t2@2))) (let ((.def_4 (<= fluent_counter_t1@2 31.0))) (let ((.def_5 (<= 0.0 fluent_counter_t1@2))) (let ((.def_6 (= parameter_make_treatment_i@2 0.0))) (let ((.def_7 (<= 0.0 fluent_counter_t0@2))) (let ((.def_8 (<= fluent_counter_t0@2 31.0))) (let ((.def_9 (= parameter_make_treatment_t@2 5.0))) (let ((.def_10 (= parameter_make_treatment_t@2 4.0))) (let ((.def_11 (= parameter_make_treatment_t@2 3.0))) (let ((.def_12 (= parameter_make_treatment_t@2 2.0))) (let ((.def_13 (= parameter_make_treatment_t@2 1.0))) (let ((.def_14 (or .def_13 .def_12 .def_11 .def_10 .def_9))) (let ((.def_15 (= parameter_make_treatment_next@2 5.0))) (let ((.def_16 (= parameter_make_treatment_next@2 4.0))) (let ((.def_17 (= parameter_make_treatment_next@2 3.0))) (let ((.def_18 (= parameter_make_treatment_next@2 2.0))) (let ((.def_19 (= parameter_make_treatment_next@2 1.0))) (let ((.def_20 (or .def_19 .def_18 .def_17 .def_16 .def_15))) (let ((.def_21 (<= fluent_counter_t4@2 31.0))) (let ((.def_22 (<= 0.0 fluent_counter_t4@2))) (let ((.def_23 (and act_make_treatment@2 true .def_9))) (let ((.def_24 (= fluent_counter_t4@1 fluent_counter_t4@2))) (let ((.def_25 (not .def_24))) (let ((.def_26 (=> .def_25 .def_23))) (let ((.def_27 (and act_make_treatment@2 true .def_10))) (let ((.def_28 (= fluent_counter_t3@1 fluent_counter_t3@2))) (let ((.def_29 (not .def_28))) (let ((.def_30 (=> .def_29 .def_27))) (let ((.def_31 (and act_make_treatment@2 true .def_11))) (let ((.def_32 (= fluent_counter_t2@1 fluent_counter_t2@2))) (let ((.def_33 (not .def_32))) (let ((.def_34 (=> .def_33 .def_31))) (let ((.def_35 (and act_make_treatment@2 true .def_12))) (let ((.def_36 (= fluent_counter_t1@1 fluent_counter_t1@2))) (let ((.def_37 (not .def_36))) (let ((.def_38 (=> .def_37 .def_35))) (let ((.def_39 (and act_make_treatment@2 true .def_13))) (let ((.def_40 (= fluent_counter_t0@1 fluent_counter_t0@2))) (let ((.def_41 (not .def_40))) (let ((.def_42 (=> .def_41 .def_39))) (let ((.def_43 (+ t@2 10.0))) (let ((.def_44 (= t@2 .def_43))) (let ((.def_45 (and act_make_treatment@2 true .def_44 .def_6 .def_15))) (let ((.def_46 (= parameter_make_treatment_next@1 5.0))) (let ((.def_47 (= parameter_make_treatment_i@1 0.0))) (let ((.def_48 (+ t@1 10.0))) (let ((.def_49 (= t@2 .def_48))) (let ((.def_50 (and act_make_treatment@1 true .def_49 .def_47 .def_46))) (let ((.def_51 (and .def_50 .def_45))) (let ((.def_52 (not .def_51))) (let ((.def_53 (or .def_50 .def_45))) (let ((.def_54 (= fluent_ready_i0_t4@1 fluent_ready_i0_t4@2))) (let ((.def_55 (not .def_54))) (let ((.def_56 (=> .def_55 .def_53))) (let ((.def_57 (and act_make_treatment@2 true .def_44 .def_6 .def_16))) (let ((.def_58 (= parameter_make_treatment_next@1 4.0))) (let ((.def_59 (and act_make_treatment@1 true .def_49 .def_47 .def_58))) (let ((.def_60 (and .def_59 .def_57))) (let ((.def_61 (not .def_60))) (let ((.def_62 (or .def_59 .def_57))) (let ((.def_63 (= fluent_ready_i0_t3@1 fluent_ready_i0_t3@2))) (let ((.def_64 (not .def_63))) (let ((.def_65 (=> .def_64 .def_62))) (let ((.def_66 (and act_make_treatment@2 true .def_44 .def_6 .def_17))) (let ((.def_67 (= parameter_make_treatment_next@1 3.0))) (let ((.def_68 (and act_make_treatment@1 true .def_49 .def_47 .def_67))) (let ((.def_69 (and .def_68 .def_66))) (let ((.def_70 (not .def_69))) (let ((.def_71 (or .def_68 .def_66))) (let ((.def_72 (= fluent_ready_i0_t2@1 fluent_ready_i0_t2@2))) (let ((.def_73 (not .def_72))) (let ((.def_74 (=> .def_73 .def_71))) (let ((.def_75 (and act_make_treatment@2 true .def_44 .def_6 .def_18))) (let ((.def_76 (= parameter_make_treatment_next@1 2.0))) (let ((.def_77 (and act_make_treatment@1 true .def_49 .def_47 .def_76))) (let ((.def_78 (and .def_77 .def_75))) (let ((.def_79 (not .def_78))) (let ((.def_80 (or .def_77 .def_75))) (let ((.def_81 (= fluent_ready_i0_t1@1 fluent_ready_i0_t1@2))) (let ((.def_82 (not .def_81))) (let ((.def_83 (=> .def_82 .def_80))) (let ((.def_84 (and act_make_treatment@2 true .def_44 .def_6 .def_19))) (let ((.def_85 (= parameter_make_treatment_next@1 1.0))) (let ((.def_86 (and act_make_treatment@1 true .def_49 .def_47 .def_85))) (let ((.def_87 (and .def_86 .def_84))) (let ((.def_88 (not .def_87))) (let ((.def_89 (or .def_86 .def_84))) (let ((.def_90 (= fluent_ready_i0_t0@1 fluent_ready_i0_t0@2))) (let ((.def_91 (not .def_90))) (let ((.def_92 (=> .def_91 .def_89))) (let ((.def_93 (and act_make_treatment@2 true .def_6 .def_9))) (let ((.def_94 (= fluent_started_i0_t4@1 fluent_started_i0_t4@2))) (let ((.def_95 (not .def_94))) (let ((.def_96 (=> .def_95 .def_93))) (let ((.def_97 (and act_make_treatment@2 true .def_6 .def_10))) (let ((.def_98 (= fluent_started_i0_t3@1 fluent_started_i0_t3@2))) (let ((.def_99 (not .def_98))) (let ((.def_100 (=> .def_99 .def_97))) (let ((.def_101 (and act_make_treatment@2 true .def_6 .def_11))) (let ((.def_102 (= fluent_started_i0_t2@1 fluent_started_i0_t2@2))) (let ((.def_103 (not .def_102))) (let ((.def_104 (=> .def_103 .def_101))) (let ((.def_105 (and act_make_treatment@2 true .def_6 .def_12))) (let ((.def_106 (= fluent_started_i0_t1@1 fluent_started_i0_t1@2))) (let ((.def_107 (not .def_106))) (let ((.def_108 (=> .def_107 .def_105))) (let ((.def_109 (and act_make_treatment@2 true .def_6 .def_13))) (let ((.def_110 (= fluent_started_i0_t0@1 fluent_started_i0_t0@2))) (let ((.def_111 (not .def_110))) (let ((.def_112 (=> .def_111 .def_109))) (let ((.def_113 (+ t@2 4.0))) (let ((.def_114 (= t@2 .def_113))) (let ((.def_115 (and act_make_treatment@2 true .def_114 .def_6 .def_9))) (let ((.def_116 (= parameter_make_treatment_t@1 5.0))) (let ((.def_117 (+ t@1 4.0))) (let ((.def_118 (= t@2 .def_117))) (let ((.def_119 (and act_make_treatment@1 true .def_118 .def_47 .def_116))) (let ((.def_120 (and .def_119 .def_115))) (let ((.def_121 (not .def_120))) (let ((.def_122 (or .def_119 .def_115))) (let ((.def_123 (= fluent_treated_i0_t4@1 fluent_treated_i0_t4@2))) (let ((.def_124 (not .def_123))) (let ((.def_125 (=> .def_124 .def_122))) (let ((.def_126 (and act_make_treatment@2 true .def_114 .def_6 .def_10))) (let ((.def_127 (= parameter_make_treatment_t@1 4.0))) (let ((.def_128 (and act_make_treatment@1 true .def_118 .def_47 .def_127))) (let ((.def_129 (and .def_128 .def_126))) (let ((.def_130 (not .def_129))) (let ((.def_131 (or .def_128 .def_126))) (let ((.def_132 (= fluent_treated_i0_t3@1 fluent_treated_i0_t3@2))) (let ((.def_133 (not .def_132))) (let ((.def_134 (=> .def_133 .def_131))) (let ((.def_135 (and act_make_treatment@2 true .def_114 .def_6 .def_11))) (let ((.def_136 (= parameter_make_treatment_t@1 3.0))) (let ((.def_137 (and act_make_treatment@1 true .def_118 .def_47 .def_136))) (let ((.def_138 (and .def_137 .def_135))) (let ((.def_139 (not .def_138))) (let ((.def_140 (or .def_137 .def_135))) (let ((.def_141 (= fluent_treated_i0_t2@1 fluent_treated_i0_t2@2))) (let ((.def_142 (not .def_141))) (let ((.def_143 (=> .def_142 .def_140))) (let ((.def_144 (and act_make_treatment@2 true .def_114 .def_6 .def_12))) (let ((.def_145 (= parameter_make_treatment_t@1 2.0))) (let ((.def_146 (and act_make_treatment@1 true .def_118 .def_47 .def_145))) (let ((.def_147 (and .def_146 .def_144))) (let ((.def_148 (not .def_147))) (let ((.def_149 (or .def_146 .def_144))) (let ((.def_150 (= fluent_treated_i0_t1@1 fluent_treated_i0_t1@2))) (let ((.def_151 (not .def_150))) (let ((.def_152 (=> .def_151 .def_149))) (let ((.def_153 (and act_make_treatment@2 true .def_114 .def_6 .def_13))) (let ((.def_154 (= parameter_make_treatment_t@1 1.0))) (let ((.def_155 (and act_make_treatment@1 true .def_118 .def_47 .def_154))) (let ((.def_156 (and .def_155 .def_153))) (let ((.def_157 (not .def_156))) (let ((.def_158 (or .def_155 .def_153))) (let ((.def_159 (= fluent_treated_i0_t0@1 fluent_treated_i0_t0@2))) (let ((.def_160 (not .def_159))) (let ((.def_161 (=> .def_160 .def_158))) (let ((.def_162 (and act_make_treatment@2 true .def_114))) (let ((.def_163 (and act_make_treatment@1 true .def_118))) (let ((.def_164 (and .def_163 .def_162))) (let ((.def_165 (not .def_164))) (let ((.def_166 (and act_make_treatment@2 true))) (let ((.def_167 (and .def_166 .def_162))) (let ((.def_168 (not .def_167))) (let ((.def_169 (and .def_166 .def_163))) (let ((.def_170 (not .def_169))) (let ((.def_171 (or .def_166 .def_163 .def_162))) (let ((.def_172 (= fluent_busy_@1 fluent_busy_@2))) (let ((.def_173 (not .def_172))) (let ((.def_174 (=> .def_173 .def_171))) (let ((.def_175 (and .def_174 .def_170 .def_168 .def_165 .def_161 .def_157 .def_152 .def_148 .def_143 .def_139 .def_134 .def_130 .def_125 .def_121 .def_112 .def_108 .def_104 .def_100 .def_96 .def_92 .def_88 .def_83 .def_79 .def_74 .def_70 .def_65 .def_61 .def_56 .def_52 .def_42 .def_38 .def_34 .def_30 .def_26))) (let ((.def_176 (+ t@1 dur_make_treatment@1))) (let ((.def_177 (<= .def_176 t@2))) (let ((.def_178 (= parameter_make_treatment_next@2 parameter_make_treatment_next@1))) (let ((.def_179 (= parameter_make_treatment_t@2 parameter_make_treatment_t@1))) (let ((.def_180 (= parameter_make_treatment_i@2 parameter_make_treatment_i@1))) (let ((.def_181 (and .def_180 .def_179 .def_178))) (let ((.def_182 (and act_make_treatment@2 act_make_treatment@1 .def_181))) (let ((.def_183 (=> .def_182 .def_177))) (let ((.def_184 (= .def_113 t@1))) (let ((.def_185 (and act_make_treatment@2 act_make_treatment@1 .def_184))) (let ((.def_186 (not .def_185))) (let ((.def_187 (+ t@2 dur_make_treatment@2))) (let ((.def_188 (= .def_187 .def_176))) (let ((.def_189 (and act_make_treatment@2 act_make_treatment@1 .def_188))) (let ((.def_190 (not .def_189))) (let ((.def_191 (= .def_187 t@1))) (let ((.def_192 (and act_make_treatment@2 act_make_treatment@1 .def_191))) (let ((.def_193 (not .def_192))) (let ((.def_194 (= .def_113 .def_117))) (let ((.def_195 (and act_make_treatment@2 act_make_treatment@1 .def_194))) (let ((.def_196 (not .def_195))) (let ((.def_197 (= .def_43 .def_48))) (let ((.def_198 (and act_make_treatment@2 act_make_treatment@1 .def_197))) (let ((.def_199 (not .def_198))) (let ((.def_200 (= t@2 t@1))) (let ((.def_201 (and act_make_treatment@2 act_make_treatment@1 .def_200))) (let ((.def_202 (not .def_201))) (let ((.def_203 (and act_make_treatment@2 act_make_treatment@1 .def_49))) (let ((.def_204 (not .def_203))) (let ((.def_205 (and .def_204 .def_202 .def_199 .def_196 .def_193 .def_190 .def_186))) (let ((.def_206 (< t@1 t@2))) (let ((.def_207 (and .def_6 .def_18))) (let ((.def_208 (ite .def_207 fluent_ready_i0_t1@2 fluent_ready_i0_t0@2))) (let ((.def_209 (and .def_6 .def_17))) (let ((.def_210 (ite .def_209 fluent_ready_i0_t2@2 .def_208))) (let ((.def_211 (and .def_6 .def_16))) (let ((.def_212 (ite .def_211 fluent_ready_i0_t3@2 .def_210))) (let ((.def_213 (and .def_6 .def_15))) (let ((.def_214 (ite .def_213 fluent_ready_i0_t4@2 .def_212))) (let ((.def_215 (= .def_214 true))) (let ((.def_216 (=> true .def_215))) (let ((.def_217 (and .def_44 .def_216))) (let ((.def_218 (= fluent_busy_@2 false))) (let ((.def_219 (=> true .def_218))) (let ((.def_220 (and .def_6 .def_12))) (let ((.def_221 (ite .def_220 fluent_treated_i0_t1@2 fluent_treated_i0_t0@2))) (let ((.def_222 (and .def_6 .def_11))) (let ((.def_223 (ite .def_222 fluent_treated_i0_t2@2 .def_221))) (let ((.def_224 (and .def_6 .def_10))) (let ((.def_225 (ite .def_224 fluent_treated_i0_t3@2 .def_223))) (let ((.def_226 (and .def_6 .def_9))) (let ((.def_227 (ite .def_226 fluent_treated_i0_t4@2 .def_225))) (let ((.def_228 (= .def_227 true))) (let ((.def_229 (=> true .def_228))) (let ((.def_230 (and .def_114 .def_229 .def_219))) (let ((.def_231 (ite .def_220 fluent_started_i0_t1@2 fluent_started_i0_t0@2))) (let ((.def_232 (ite .def_222 fluent_started_i0_t2@2 .def_231))) (let ((.def_233 (ite .def_224 fluent_started_i0_t3@2 .def_232))) (let ((.def_234 (ite .def_226 fluent_started_i0_t4@2 .def_233))) (let ((.def_235 (= .def_234 true))) (let ((.def_236 (=> true .def_235))) (let ((.def_237 (= fluent_busy_@2 true))) (let ((.def_238 (=> true .def_237))) (let ((.def_239 (ite .def_12 fluent_counter_t1@1 fluent_counter_t0@1))) (let ((.def_240 (ite .def_11 fluent_counter_t2@1 .def_239))) (let ((.def_241 (ite .def_10 fluent_counter_t3@1 .def_240))) (let ((.def_242 (ite .def_9 fluent_counter_t4@1 .def_241))) (let ((.def_243 (+ .def_242 1.0))) (let ((.def_244 (ite .def_12 fluent_counter_t1@2 fluent_counter_t0@2))) (let ((.def_245 (ite .def_11 fluent_counter_t2@2 .def_244))) (let ((.def_246 (ite .def_10 fluent_counter_t3@2 .def_245))) (let ((.def_247 (ite .def_9 fluent_counter_t4@2 .def_246))) (let ((.def_248 (= .def_247 .def_243))) (let ((.def_249 (=> true .def_248))) (let ((.def_250 (= t@2 t@2))) (let ((.def_251 (and .def_250 .def_249 .def_238 .def_236))) (let ((.def_252 (ite .def_207 fluent_started_i0_t1@1 fluent_started_i0_t0@1))) (let ((.def_253 (ite .def_209 fluent_started_i0_t2@1 .def_252))) (let ((.def_254 (ite .def_211 fluent_started_i0_t3@1 .def_253))) (let ((.def_255 (ite .def_213 fluent_started_i0_t4@1 .def_254))) (let ((.def_256 (<= .def_187 t@2))) (let ((.def_257 (< t@1 .def_187))) (let ((.def_258 (and .def_257 .def_256))) (let ((.def_259 (=> .def_258 .def_255))) (let ((.def_260 (ite .def_220 fluent_ready_i0_t1@1 fluent_ready_i0_t0@1))) (let ((.def_261 (ite .def_222 fluent_ready_i0_t2@1 .def_260))) (let ((.def_262 (ite .def_224 fluent_ready_i0_t3@1 .def_261))) (let ((.def_263 (ite .def_226 fluent_ready_i0_t4@1 .def_262))) (let ((.def_264 (ite .def_220 fluent_started_i0_t1@1 fluent_started_i0_t0@1))) (let ((.def_265 (ite .def_222 fluent_started_i0_t2@1 .def_264))) (let ((.def_266 (ite .def_224 fluent_started_i0_t3@1 .def_265))) (let ((.def_267 (ite .def_226 fluent_started_i0_t4@1 .def_266))) (let ((.def_268 (not .def_267))) (let ((.def_269 (ite .def_220 fluent_treated_i0_t1@1 fluent_treated_i0_t0@1))) (let ((.def_270 (ite .def_222 fluent_treated_i0_t2@1 .def_269))) (let ((.def_271 (ite .def_224 fluent_treated_i0_t3@1 .def_270))) (let ((.def_272 (ite .def_226 fluent_treated_i0_t4@1 .def_271))) (let ((.def_273 (not .def_272))) (let ((.def_274 (not fluent_busy_@1))) (let ((.def_275 (and .def_12 .def_19))) (let ((.def_276 (ite .def_275 false false))) (let ((.def_277 (and .def_11 .def_19))) (let ((.def_278 (ite .def_277 false .def_276))) (let ((.def_279 (and .def_10 .def_19))) (let ((.def_280 (ite .def_279 false .def_278))) (let ((.def_281 (and .def_9 .def_19))) (let ((.def_282 (ite .def_281 false .def_280))) (let ((.def_283 (and .def_13 .def_18))) (let ((.def_284 (ite .def_283 true .def_282))) (let ((.def_285 (and .def_12 .def_18))) (let ((.def_286 (ite .def_285 false .def_284))) (let ((.def_287 (and .def_11 .def_18))) (let ((.def_288 (ite .def_287 false .def_286))) (let ((.def_289 (and .def_10 .def_18))) (let ((.def_290 (ite .def_289 false .def_288))) (let ((.def_291 (and .def_9 .def_18))) (let ((.def_292 (ite .def_291 false .def_290))) (let ((.def_293 (and .def_13 .def_17))) (let ((.def_294 (ite .def_293 false .def_292))) (let ((.def_295 (and .def_12 .def_17))) (let ((.def_296 (ite .def_295 true .def_294))) (let ((.def_297 (and .def_11 .def_17))) (let ((.def_298 (ite .def_297 false .def_296))) (let ((.def_299 (and .def_10 .def_17))) (let ((.def_300 (ite .def_299 false .def_298))) (let ((.def_301 (and .def_9 .def_17))) (let ((.def_302 (ite .def_301 false .def_300))) (let ((.def_303 (and .def_13 .def_16))) (let ((.def_304 (ite .def_303 false .def_302))) (let ((.def_305 (and .def_12 .def_16))) (let ((.def_306 (ite .def_305 false .def_304))) (let ((.def_307 (and .def_11 .def_16))) (let ((.def_308 (ite .def_307 true .def_306))) (let ((.def_309 (and .def_10 .def_16))) (let ((.def_310 (ite .def_309 false .def_308))) (let ((.def_311 (and .def_9 .def_16))) (let ((.def_312 (ite .def_311 false .def_310))) (let ((.def_313 (and .def_13 .def_15))) (let ((.def_314 (ite .def_313 false .def_312))) (let ((.def_315 (and .def_12 .def_15))) (let ((.def_316 (ite .def_315 false .def_314))) (let ((.def_317 (and .def_11 .def_15))) (let ((.def_318 (ite .def_317 false .def_316))) (let ((.def_319 (and .def_10 .def_15))) (let ((.def_320 (ite .def_319 true .def_318))) (let ((.def_321 (and .def_9 .def_15))) (let ((.def_322 (ite .def_321 false .def_320))) (let ((.def_323 (= 0.0 .def_242))) (let ((.def_324 (and .def_323 .def_322 .def_274 .def_273 .def_268 .def_263))) (let ((.def_325 (<= t@2 t@2))) (let ((.def_326 (and .def_206 .def_325))) (let ((.def_327 (=> .def_326 .def_324))) (let ((.def_328 (<= dur_make_treatment@2 15.0))) (let ((.def_329 (<= 15.0 dur_make_treatment@2))) (let ((.def_330 (and .def_329 .def_328))) (let ((.def_331 (and .def_330 .def_256 .def_327 .def_259 .def_251 .def_230 .def_217))) (let ((.def_332 (=> act_make_treatment@2 .def_331))) (let ((.def_333 (<= fluent_counter_t4@1 31.0))) (let ((.def_334 (<= 0.0 fluent_counter_t4@1))) (let ((.def_335 (<= 0.0 fluent_counter_t3@1))) (let ((.def_336 (<= fluent_counter_t3@1 31.0))) (let ((.def_337 (or .def_154 .def_145 .def_136 .def_127 .def_116))) (let ((.def_338 (<= fluent_counter_t2@1 31.0))) (let ((.def_339 (<= 0.0 fluent_counter_t2@1))) (let ((.def_340 (or .def_85 .def_76 .def_67 .def_58 .def_46))) (let ((.def_341 (<= fluent_counter_t1@1 31.0))) (let ((.def_342 (<= 0.0 fluent_counter_t1@1))) (let ((.def_343 (<= fluent_counter_t0@1 31.0))) (let ((.def_344 (<= 0.0 fluent_counter_t0@1))) (let ((.def_345 (and act_make_treatment@1 true .def_116))) (let ((.def_346 (= fluent_counter_t4@0 fluent_counter_t4@1))) (let ((.def_347 (not .def_346))) (let ((.def_348 (=> .def_347 .def_345))) (let ((.def_349 (and act_make_treatment@1 true .def_127))) (let ((.def_350 (= fluent_counter_t3@0 fluent_counter_t3@1))) (let ((.def_351 (not .def_350))) (let ((.def_352 (=> .def_351 .def_349))) (let ((.def_353 (and act_make_treatment@1 true .def_136))) (let ((.def_354 (= fluent_counter_t2@0 fluent_counter_t2@1))) (let ((.def_355 (not .def_354))) (let ((.def_356 (=> .def_355 .def_353))) (let ((.def_357 (and act_make_treatment@1 true .def_145))) (let ((.def_358 (= fluent_counter_t1@0 fluent_counter_t1@1))) (let ((.def_359 (not .def_358))) (let ((.def_360 (=> .def_359 .def_357))) (let ((.def_361 (and act_make_treatment@1 true .def_154))) (let ((.def_362 (= fluent_counter_t0@0 fluent_counter_t0@1))) (let ((.def_363 (not .def_362))) (let ((.def_364 (=> .def_363 .def_361))) (let ((.def_365 (= t@1 .def_48))) (let ((.def_366 (and act_make_treatment@1 true .def_365 .def_47 .def_46))) (let ((.def_367 (= fluent_ready_i0_t4@0 fluent_ready_i0_t4@1))) (let ((.def_368 (not .def_367))) (let ((.def_369 (=> .def_368 .def_366))) (let ((.def_370 (and act_make_treatment@1 true .def_365 .def_47 .def_58))) (let ((.def_371 (= fluent_ready_i0_t3@0 fluent_ready_i0_t3@1))) (let ((.def_372 (not .def_371))) (let ((.def_373 (=> .def_372 .def_370))) (let ((.def_374 (and act_make_treatment@1 true .def_365 .def_47 .def_67))) (let ((.def_375 (= fluent_ready_i0_t2@0 fluent_ready_i0_t2@1))) (let ((.def_376 (not .def_375))) (let ((.def_377 (=> .def_376 .def_374))) (let ((.def_378 (and act_make_treatment@1 true .def_365 .def_47 .def_76))) (let ((.def_379 (= fluent_ready_i0_t1@0 fluent_ready_i0_t1@1))) (let ((.def_380 (not .def_379))) (let ((.def_381 (=> .def_380 .def_378))) (let ((.def_382 (and act_make_treatment@1 true .def_365 .def_47 .def_85))) (let ((.def_383 (= fluent_ready_i0_t0@0 fluent_ready_i0_t0@1))) (let ((.def_384 (not .def_383))) (let ((.def_385 (=> .def_384 .def_382))) (let ((.def_386 (and act_make_treatment@1 true .def_47 .def_116))) (let ((.def_387 (= fluent_started_i0_t4@0 fluent_started_i0_t4@1))) (let ((.def_388 (not .def_387))) (let ((.def_389 (=> .def_388 .def_386))) (let ((.def_390 (and act_make_treatment@1 true .def_47 .def_127))) (let ((.def_391 (= fluent_started_i0_t3@0 fluent_started_i0_t3@1))) (let ((.def_392 (not .def_391))) (let ((.def_393 (=> .def_392 .def_390))) (let ((.def_394 (and act_make_treatment@1 true .def_47 .def_136))) (let ((.def_395 (= fluent_started_i0_t2@0 fluent_started_i0_t2@1))) (let ((.def_396 (not .def_395))) (let ((.def_397 (=> .def_396 .def_394))) (let ((.def_398 (and act_make_treatment@1 true .def_47 .def_145))) (let ((.def_399 (= fluent_started_i0_t1@0 fluent_started_i0_t1@1))) (let ((.def_400 (not .def_399))) (let ((.def_401 (=> .def_400 .def_398))) (let ((.def_402 (and act_make_treatment@1 true .def_47 .def_154))) (let ((.def_403 (= fluent_started_i0_t0@0 fluent_started_i0_t0@1))) (let ((.def_404 (not .def_403))) (let ((.def_405 (=> .def_404 .def_402))) (let ((.def_406 (= t@1 .def_117))) (let ((.def_407 (and act_make_treatment@1 true .def_406 .def_47 .def_116))) (let ((.def_408 (= fluent_treated_i0_t4@0 fluent_treated_i0_t4@1))) (let ((.def_409 (not .def_408))) (let ((.def_410 (=> .def_409 .def_407))) (let ((.def_411 (and act_make_treatment@1 true .def_406 .def_47 .def_127))) (let ((.def_412 (= fluent_treated_i0_t3@0 fluent_treated_i0_t3@1))) (let ((.def_413 (not .def_412))) (let ((.def_414 (=> .def_413 .def_411))) (let ((.def_415 (and act_make_treatment@1 true .def_406 .def_47 .def_136))) (let ((.def_416 (= fluent_treated_i0_t2@0 fluent_treated_i0_t2@1))) (let ((.def_417 (not .def_416))) (let ((.def_418 (=> .def_417 .def_415))) (let ((.def_419 (and act_make_treatment@1 true .def_406 .def_47 .def_145))) (let ((.def_420 (= fluent_treated_i0_t1@0 fluent_treated_i0_t1@1))) (let ((.def_421 (not .def_420))) (let ((.def_422 (=> .def_421 .def_419))) (let ((.def_423 (and act_make_treatment@1 true .def_406 .def_47 .def_154))) (let ((.def_424 (= fluent_treated_i0_t0@0 fluent_treated_i0_t0@1))) (let ((.def_425 (not .def_424))) (let ((.def_426 (=> .def_425 .def_423))) (let ((.def_427 (and act_make_treatment@1 true .def_406))) (let ((.def_428 (and act_make_treatment@1 true))) (let ((.def_429 (and .def_428 .def_427))) (let ((.def_430 (not .def_429))) (let ((.def_431 (or .def_428 .def_427))) (let ((.def_432 (= fluent_busy_@0 fluent_busy_@1))) (let ((.def_433 (not .def_432))) (let ((.def_434 (=> .def_433 .def_431))) (let ((.def_435 (and .def_434 .def_430 .def_426 .def_422 .def_418 .def_414 .def_410 .def_405 .def_401 .def_397 .def_393 .def_389 .def_385 .def_381 .def_377 .def_373 .def_369 .def_364 .def_360 .def_356 .def_352 .def_348))) (let ((.def_436 (= .def_117 t@2))) (let ((.def_437 (and act_make_treatment@1 act_make_treatment@2 .def_436))) (let ((.def_438 (not .def_437))) (let ((.def_439 (= .def_176 .def_187))) (let ((.def_440 (and act_make_treatment@1 act_make_treatment@2 .def_439))) (let ((.def_441 (not .def_440))) (let ((.def_442 (= .def_176 t@2))) (let ((.def_443 (and act_make_treatment@1 act_make_treatment@2 .def_442))) (let ((.def_444 (not .def_443))) (let ((.def_445 (= .def_117 .def_113))) (let ((.def_446 (and act_make_treatment@1 act_make_treatment@2 .def_445))) (let ((.def_447 (not .def_446))) (let ((.def_448 (= .def_48 .def_43))) (let ((.def_449 (and act_make_treatment@1 act_make_treatment@2 .def_448))) (let ((.def_450 (not .def_449))) (let ((.def_451 (= t@1 t@2))) (let ((.def_452 (and act_make_treatment@1 act_make_treatment@2 .def_451))) (let ((.def_453 (not .def_452))) (let ((.def_454 (= t@1 .def_43))) (let ((.def_455 (and act_make_treatment@1 act_make_treatment@2 .def_454))) (let ((.def_456 (not .def_455))) (let ((.def_457 (and .def_456 .def_453 .def_450 .def_447 .def_444 .def_441 .def_438))) (let ((.def_458 (<= 0.0 t@1))) (let ((.def_459 (and .def_47 .def_76))) (let ((.def_460 (ite .def_459 fluent_ready_i0_t1@2 fluent_ready_i0_t0@2))) (let ((.def_461 (and .def_47 .def_67))) (let ((.def_462 (ite .def_461 fluent_ready_i0_t2@2 .def_460))) (let ((.def_463 (and .def_47 .def_58))) (let ((.def_464 (ite .def_463 fluent_ready_i0_t3@2 .def_462))) (let ((.def_465 (and .def_47 .def_46))) (let ((.def_466 (ite .def_465 fluent_ready_i0_t4@2 .def_464))) (let ((.def_467 (= .def_466 true))) (let ((.def_468 (=> true .def_467))) (let ((.def_469 (and .def_49 .def_468))) (let ((.def_470 (ite .def_459 fluent_ready_i0_t1@1 fluent_ready_i0_t0@1))) (let ((.def_471 (ite .def_461 fluent_ready_i0_t2@1 .def_470))) (let ((.def_472 (ite .def_463 fluent_ready_i0_t3@1 .def_471))) (let ((.def_473 (ite .def_465 fluent_ready_i0_t4@1 .def_472))) (let ((.def_474 (= .def_473 true))) (let ((.def_475 (=> true .def_474))) (let ((.def_476 (and .def_365 .def_475))) (let ((.def_477 (or .def_476 .def_469))) (let ((.def_478 (and .def_47 .def_145))) (let ((.def_479 (ite .def_478 fluent_treated_i0_t1@2 fluent_treated_i0_t0@2))) (let ((.def_480 (and .def_47 .def_136))) (let ((.def_481 (ite .def_480 fluent_treated_i0_t2@2 .def_479))) (let ((.def_482 (and .def_47 .def_127))) (let ((.def_483 (ite .def_482 fluent_treated_i0_t3@2 .def_481))) (let ((.def_484 (and .def_47 .def_116))) (let ((.def_485 (ite .def_484 fluent_treated_i0_t4@2 .def_483))) (let ((.def_486 (= .def_485 true))) (let ((.def_487 (=> true .def_486))) (let ((.def_488 (and .def_118 .def_487 .def_219))) (let ((.def_489 (= fluent_busy_@1 false))) (let ((.def_490 (=> true .def_489))) (let ((.def_491 (ite .def_478 fluent_treated_i0_t1@1 fluent_treated_i0_t0@1))) (let ((.def_492 (ite .def_480 fluent_treated_i0_t2@1 .def_491))) (let ((.def_493 (ite .def_482 fluent_treated_i0_t3@1 .def_492))) (let ((.def_494 (ite .def_484 fluent_treated_i0_t4@1 .def_493))) (let ((.def_495 (= .def_494 true))) (let ((.def_496 (=> true .def_495))) (let ((.def_497 (and .def_406 .def_496 .def_490))) (let ((.def_498 (or .def_497 .def_488))) (let ((.def_499 (ite .def_478 fluent_started_i0_t1@1 fluent_started_i0_t0@1))) (let ((.def_500 (ite .def_480 fluent_started_i0_t2@1 .def_499))) (let ((.def_501 (ite .def_482 fluent_started_i0_t3@1 .def_500))) (let ((.def_502 (ite .def_484 fluent_started_i0_t4@1 .def_501))) (let ((.def_503 (= .def_502 true))) (let ((.def_504 (=> true .def_503))) (let ((.def_505 (= fluent_busy_@1 true))) (let ((.def_506 (=> true .def_505))) (let ((.def_507 (ite .def_145 fluent_counter_t1@0 fluent_counter_t0@0))) (let ((.def_508 (ite .def_136 fluent_counter_t2@0 .def_507))) (let ((.def_509 (ite .def_127 fluent_counter_t3@0 .def_508))) (let ((.def_510 (ite .def_116 fluent_counter_t4@0 .def_509))) (let ((.def_511 (+ .def_510 1.0))) (let ((.def_512 (ite .def_145 fluent_counter_t1@1 fluent_counter_t0@1))) (let ((.def_513 (ite .def_136 fluent_counter_t2@1 .def_512))) (let ((.def_514 (ite .def_127 fluent_counter_t3@1 .def_513))) (let ((.def_515 (ite .def_116 fluent_counter_t4@1 .def_514))) (let ((.def_516 (= .def_515 .def_511))) (let ((.def_517 (=> true .def_516))) (let ((.def_518 (= t@1 t@1))) (let ((.def_519 (and .def_518 .def_517 .def_506 .def_504))) (let ((.def_520 (ite .def_459 fluent_started_i0_t1@1 fluent_started_i0_t0@1))) (let ((.def_521 (ite .def_461 fluent_started_i0_t2@1 .def_520))) (let ((.def_522 (ite .def_463 fluent_started_i0_t3@1 .def_521))) (let ((.def_523 (ite .def_465 fluent_started_i0_t4@1 .def_522))) (let ((.def_524 (< t@1 .def_176))) (let ((.def_525 (and .def_524 .def_177))) (let ((.def_526 (=> .def_525 .def_523))) (let ((.def_527 (ite .def_459 fluent_started_i0_t1@0 fluent_started_i0_t0@0))) (let ((.def_528 (ite .def_461 fluent_started_i0_t2@0 .def_527))) (let ((.def_529 (ite .def_463 fluent_started_i0_t3@0 .def_528))) (let ((.def_530 (ite .def_465 fluent_started_i0_t4@0 .def_529))) (let ((.def_531 (<= .def_176 t@1))) (let ((.def_532 (< (- 1.0) .def_176))) (let ((.def_533 (and .def_532 .def_531))) (let ((.def_534 (=> .def_533 .def_530))) (let ((.def_535 (ite .def_478 fluent_ready_i0_t1@1 fluent_ready_i0_t0@1))) (let ((.def_536 (ite .def_480 fluent_ready_i0_t2@1 .def_535))) (let ((.def_537 (ite .def_482 fluent_ready_i0_t3@1 .def_536))) (let ((.def_538 (ite .def_484 fluent_ready_i0_t4@1 .def_537))) (let ((.def_539 (not .def_502))) (let ((.def_540 (not .def_494))) (let ((.def_541 (and .def_145 .def_85))) (let ((.def_542 (ite .def_541 false false))) (let ((.def_543 (and .def_136 .def_85))) (let ((.def_544 (ite .def_543 false .def_542))) (let ((.def_545 (and .def_127 .def_85))) (let ((.def_546 (ite .def_545 false .def_544))) (let ((.def_547 (and .def_116 .def_85))) (let ((.def_548 (ite .def_547 false .def_546))) (let ((.def_549 (and .def_154 .def_76))) (let ((.def_550 (ite .def_549 true .def_548))) (let ((.def_551 (and .def_145 .def_76))) (let ((.def_552 (ite .def_551 false .def_550))) (let ((.def_553 (and .def_136 .def_76))) (let ((.def_554 (ite .def_553 false .def_552))) (let ((.def_555 (and .def_127 .def_76))) (let ((.def_556 (ite .def_555 false .def_554))) (let ((.def_557 (and .def_116 .def_76))) (let ((.def_558 (ite .def_557 false .def_556))) (let ((.def_559 (and .def_154 .def_67))) (let ((.def_560 (ite .def_559 false .def_558))) (let ((.def_561 (and .def_145 .def_67))) (let ((.def_562 (ite .def_561 true .def_560))) (let ((.def_563 (and .def_136 .def_67))) (let ((.def_564 (ite .def_563 false .def_562))) (let ((.def_565 (and .def_127 .def_67))) (let ((.def_566 (ite .def_565 false .def_564))) (let ((.def_567 (and .def_116 .def_67))) (let ((.def_568 (ite .def_567 false .def_566))) (let ((.def_569 (and .def_154 .def_58))) (let ((.def_570 (ite .def_569 false .def_568))) (let ((.def_571 (and .def_145 .def_58))) (let ((.def_572 (ite .def_571 false .def_570))) (let ((.def_573 (and .def_136 .def_58))) (let ((.def_574 (ite .def_573 true .def_572))) (let ((.def_575 (and .def_127 .def_58))) (let ((.def_576 (ite .def_575 false .def_574))) (let ((.def_577 (and .def_116 .def_58))) (let ((.def_578 (ite .def_577 false .def_576))) (let ((.def_579 (and .def_154 .def_46))) (let ((.def_580 (ite .def_579 false .def_578))) (let ((.def_581 (and .def_145 .def_46))) (let ((.def_582 (ite .def_581 false .def_580))) (let ((.def_583 (and .def_136 .def_46))) (let ((.def_584 (ite .def_583 false .def_582))) (let ((.def_585 (and .def_127 .def_46))) (let ((.def_586 (ite .def_585 true .def_584))) (let ((.def_587 (and .def_116 .def_46))) (let ((.def_588 (ite .def_587 false .def_586))) (let ((.def_589 (= 0.0 .def_515))) (let ((.def_590 (and .def_589 .def_588 .def_274 .def_540 .def_539 .def_538))) (let ((.def_591 (<= t@1 t@2))) (let ((.def_592 (< t@1 t@1))) (let ((.def_593 (and .def_592 .def_591))) (let ((.def_594 (=> .def_593 .def_590))) (let ((.def_595 (ite .def_478 fluent_ready_i0_t1@0 fluent_ready_i0_t0@0))) (let ((.def_596 (ite .def_480 fluent_ready_i0_t2@0 .def_595))) (let ((.def_597 (ite .def_482 fluent_ready_i0_t3@0 .def_596))) (let ((.def_598 (ite .def_484 fluent_ready_i0_t4@0 .def_597))) (let ((.def_599 (ite .def_478 fluent_started_i0_t1@0 fluent_started_i0_t0@0))) (let ((.def_600 (ite .def_480 fluent_started_i0_t2@0 .def_599))) (let ((.def_601 (ite .def_482 fluent_started_i0_t3@0 .def_600))) (let ((.def_602 (ite .def_484 fluent_started_i0_t4@0 .def_601))) (let ((.def_603 (not .def_602))) (let ((.def_604 (ite .def_478 fluent_treated_i0_t1@0 fluent_treated_i0_t0@0))) (let ((.def_605 (ite .def_480 fluent_treated_i0_t2@0 .def_604))) (let ((.def_606 (ite .def_482 fluent_treated_i0_t3@0 .def_605))) (let ((.def_607 (ite .def_484 fluent_treated_i0_t4@0 .def_606))) (let ((.def_608 (not .def_607))) (let ((.def_609 (not fluent_busy_@0))) (let ((.def_610 (= 0.0 .def_510))) (let ((.def_611 (and .def_610 .def_588 .def_609 .def_608 .def_603 .def_598))) (let ((.def_612 (<= t@1 t@1))) (let ((.def_613 (< (- 1.0) t@1))) (let ((.def_614 (and .def_613 .def_612))) (let ((.def_615 (=> .def_614 .def_611))) (let ((.def_616 (<= dur_make_treatment@1 15.0))) (let ((.def_617 (<= 15.0 dur_make_treatment@1))) (let ((.def_618 (and .def_617 .def_616))) (let ((.def_619 (and .def_618 .def_177 .def_615 .def_594 .def_534 .def_526 .def_519 .def_498 .def_477))) (let ((.def_620 (=> act_make_treatment@1 .def_619))) (let ((.def_621 (<= fluent_counter_t4@0 31.0))) (let ((.def_622 (<= 0.0 fluent_counter_t4@0))) (let ((.def_623 (<= fluent_counter_t3@0 31.0))) (let ((.def_624 (<= 0.0 fluent_counter_t3@0))) (let ((.def_625 (<= fluent_counter_t2@0 31.0))) (let ((.def_626 (<= 0.0 fluent_counter_t2@0))) (let ((.def_627 (<= fluent_counter_t1@0 31.0))) (let ((.def_628 (<= 0.0 fluent_counter_t1@0))) (let ((.def_629 (<= fluent_counter_t0@0 31.0))) (let ((.def_630 (<= 0.0 fluent_counter_t0@0))) (let ((.def_631 (= fluent_counter_t4@0 0.0))) (let ((.def_632 (= fluent_counter_t3@0 0.0))) (let ((.def_633 (= fluent_counter_t2@0 0.0))) (let ((.def_634 (= fluent_counter_t1@0 0.0))) (let ((.def_635 (= fluent_counter_t0@0 0.0))) (let ((.def_636 (= false false))) (let ((.def_637 (= fluent_ready_i0_t4@0 false))) (let ((.def_638 (= fluent_ready_i0_t3@0 false))) (let ((.def_639 (= fluent_ready_i0_t2@0 false))) (let ((.def_640 (= fluent_ready_i0_t1@0 false))) (let ((.def_641 (= fluent_started_i0_t3@0 false))) (let ((.def_642 (= fluent_started_i0_t2@0 false))) (let ((.def_643 (= fluent_started_i0_t1@0 false))) (let ((.def_644 (= fluent_started_i0_t0@0 false))) (let ((.def_645 (= fluent_treated_i0_t4@0 false))) (let ((.def_646 (= fluent_treated_i0_t3@0 false))) (let ((.def_647 (= fluent_treated_i0_t2@0 false))) (let ((.def_648 (= fluent_treated_i0_t1@0 false))) (let ((.def_649 (= fluent_treated_i0_t0@0 false))) (let ((.def_650 (= fluent_busy_@0 false))) (let ((.def_651 (= fluent_ready_i0_t0@0 true))) (let ((.def_652 (= fluent_started_i0_t4@0 true))) (let ((.def_653 (= true true))) (let ((.def_654 (= 0.0 0.0))) (let ((.def_655 (and .def_654 .def_653 .def_653 .def_653 .def_653 .def_652 .def_651 .def_650 .def_649 .def_648 .def_647 .def_646 .def_645 .def_644 .def_643 .def_642 .def_641 .def_640 .def_639 .def_638 .def_637 .def_636 .def_636 .def_636 .def_636 .def_636 .def_636 .def_636 .def_636 .def_636 .def_636 .def_636 .def_636 .def_636 .def_636 .def_636 .def_636 .def_636 .def_636 .def_636 .def_636 .def_636 .def_635 .def_634 .def_633 .def_632 .def_631 .def_630 .def_629 .def_628 .def_627 .def_626 .def_625 .def_624 .def_623 .def_622 .def_621))) (let ((.def_656 (and .def_655 .def_620 .def_458 true .def_457 true .def_435 .def_344 .def_343 .def_342 .def_341 .def_340 .def_339 .def_338 .def_337 .def_47 .def_336 .def_335 .def_334 .def_333 .def_332 .def_206 .def_205 true .def_183 .def_175 .def_22 .def_21 .def_20 .def_14 .def_8 .def_7 .def_6 .def_5 .def_4 .def_3 .def_2 .def_1 .def_0 true))) .def_656))))))))))))))))))))))))))))))))))))))))))))))))))))))))))))))))))))))))))))))))))))))))))))))))))))))))))))))))))))))))))))))))))))))))))))))))))))))))))))))))))))))))))))))))))))))))))))))))))))))))))))))))))))))))))))))))))))))))))))))))))))))))))))))))))))))))))))))))))))))))))))))))))))))))))))))))))))))))))))))))))))))))))))))))))))))))))))))))))))))))))))))))))))))))))))))))))))))))))))))))))))))))))))))))))))))))))))))))))))))))))))))))))))))))))))))))))))))))))))))))))))))))))))))))))))))))))))))))))))))))))))))))))))))))))))))))))))))))))))))))))))))))))))))))))))))))))))))))))))))))))))))))))))))))))))))))))))))))))))))))))))))))))))))))))
(check-sat)
